p wcnf 2000 200 1
1 1 0
1 2 0
1 3 0
1 4 0
1 5 0
1 6 0
1 7 0
1 8 0
1 9 0
1 10 0
1 11 0
1 12 0
1 1 1 1 2 2 2 2 2 2 2 2 0
1 2 2 2 2 2 2 2 2 3 3 3 0
1 3 3 3 3 3 3 3 3 3 3 3 0
1 3 3 3 3 3 4 4 4 4 4 4 0
1 4 4 4 4 4 4 5 5 5 5 5 0
1 5 5 5 5 5 5 5 5 5 5 5 0
1 5 5 5 5 5 6 6 6 6 6 6 0
1 6 6 6 6 6 6 6 6 6 6 6 0
1 6 6 6 7 7 7 7 7 7 7 7 0
1 7 7 7 7 7 7 7 7 7 7 7 0
1 7 7 7 8 8 8 8 8 8 8 8 0
1 8 8 8 8 8 8 8 8 8 8 9 0
1 9 9 9 9 9 9 9 9 9 9 9 0
1 9 9 9 9 9 9 9 9 10 10 10 0
1 10 10 10 10 10 10 10 10 11 11 11 0
1 11 11 11 11 11 11 11 11 11 11 11 0
1 11 11 11 11 11 11 11 11 11 11 12 0
1 12 12 12 12 12 12 12 12 12 12 12 0
1 13 13 13 13 13 13 13 13 13 13 13 0
1 13 13 13 13 13 13 13 13 13 13 14 0
1 14 14 14 14 14 14 14 14 14 14 14 0
1 15 15 15 15 15 15 15 15 15 15 15 0
1 15 16 16 16 16 16 16 16 16 16 16 0
1 16 16 16 16 17 17 17 17 17 17 17 0
1 17 17 17 17 17 17 17 17 17 17 17 0
1 17 18 18 18 18 18 18 18 18 18 18 0
1 18 18 18 18 18 18 18 18 18 19 19 0
1 19 19 19 19 19 19 19 19 19 19 19 0
1 19 19 19 19 19 19 19 19 19 19 19 0
1 20 20 20 20 20 20 20 20 20 20 20 0
1 20 21 21 21 21 21 21 21 21 21 21 0
1 21 21 21 21 21 21 21 21 21 21 21 0
1 21 21 22 22 22 22 22 22 22 22 22 0
1 22 22 22 22 22 22 23 23 23 23 23 0
1 23 23 23 23 23 23 23 23 23 23 23 0
1 24 24 24 24 24 24 24 24 24 24 24 0
1 24 24 24 24 24 24 24 24 24 24 24 0
1 24 25 25 25 25 25 25 25 25 25 25 0
1 25 25 25 25 25 25 25 25 25 25 25 0
1 25 25 25 25 25 25 25 26 26 26 26 0
1 26 26 26 26 26 26 26 26 26 26 26 0
1 26 26 26 26 26 26 26 27 27 27 27 0
1 27 27 27 27 27 27 27 27 27 27 27 0
1 27 28 28 28 28 28 28 28 28 28 28 0
1 28 28 28 29 29 29 29 29 29 29 29 0
1 29 29 29 29 29 29 29 29 30 30 30 0
1 30 30 30 30 30 30 30 30 30 30 30 0
1 30 30 30 31 31 31 31 31 31 31 31 0
1 31 31 31 31 31 31 31 31 31 32 32 0
1 32 32 32 32 32 32 32 32 32 32 32 0
1 32 32 32 32 32 32 33 33 33 33 33 0
1 33 33 33 33 33 33 33 33 33 34 34 0
1 34 34 34 34 34 34 34 34 34 34 34 0
1 34 34 35 35 35 35 35 35 35 35 35 0
1 35 35 35 35 35 35 35 35 35 35 35 0
1 35 36 36 36 36 36 36 36 36 36 36 0
1 36 36 36 36 36 36 36 36 36 36 36 0
1 37 37 37 37 37 37 37 37 37 37 37 0
1 37 37 37 37 37 38 38 38 38 38 38 0
1 38 38 38 38 38 38 38 38 38 38 38 0
1 38 38 39 39 39 39 39 39 39 39 39 0
1 39 39 39 39 39 39 39 39 39 39 39 0
1 40 40 40 40 40 40 40 40 40 40 40 0
1 40 40 40 40 40 40 40 41 41 41 41 0
1 41 41 41 41 41 41 41 41 41 41 41 0
1 41 41 41 41 42 42 42 42 42 42 42 0
1 42 42 42 42 42 42 42 42 42 42 42 0
1 43 43 43 43 43 43 43 43 43 43 43 0
1 43 43 43 44 44 44 44 44 44 44 44 0
1 44 44 44 44 44 44 44 44 44 45 45 0
1 45 45 45 45 45 45 45 45 45 45 45 0
1 45 45 45 45 45 45 45 46 46 46 46 0
1 46 46 46 46 46 46 46 46 46 46 46 0
1 47 47 47 47 47 47 47 47 47 47 47 0
1 47 47 47 47 47 47 47 47 47 47 47 0
1 47 47 48 48 48 48 48 48 48 48 48 0
1 48 48 48 48 48 48 48 48 48 48 48 0
1 48 48 49 49 49 49 49 49 49 49 49 0
1 49 49 49 49 50 50 50 50 50 50 50 0
1 50 50 50 50 50 50 50 50 50 50 50 0
1 51 51 51 51 51 51 51 51 51 51 51 0
1 51 51 51 51 51 51 52 52 52 52 52 0
1 52 52 52 52 52 52 52 52 52 52 52 0
1 52 52 53 53 53 53 53 53 53 53 53 0
1 53 53 53 53 53 53 53 53 53 53 53 0
1 53 54 54 54 54 54 54 54 54 54 54 0
1 54 54 54 54 54 54 54 54 54 55 55 0
1 55 55 55 55 55 55 55 55 55 55 55 0
1 55 55 55 55 56 56 56 56 56 56 56 0
1 56 56 56 56 56 56 56 56 56 56 56 0
1 57 57 57 57 57 57 57 57 57 57 57 0
1 57 57 57 57 57 57 57 57 57 57 57 0
1 57 57 57 58 58 58 58 58 58 58 58 0
1 58 58 58 58 58 58 58 58 58 58 58 0
1 59 59 59 59 59 59 59 59 59 59 59 0
1 59 59 59 59 60 60 60 60 60 60 60 0
1 60 60 60 60 60 61 61 61 61 61 61 0
1 61 61 61 61 61 61 61 61 61 61 62 0
1 62 62 62 62 62 62 62 62 62 62 62 0
1 63 63 63 63 63 63 63 63 63 63 63 0
1 63 63 63 63 63 63 63 63 63 63 63 0
1 63 64 64 64 64 64 64 64 64 64 64 0
1 64 64 64 64 64 64 64 64 64 64 64 0
1 65 65 65 65 65 65 65 65 65 65 65 0
1 65 65 66 66 66 66 66 66 66 66 66 0
1 66 66 66 66 66 67 67 67 67 67 67 0
1 67 67 67 67 67 67 67 67 67 67 67 0
1 68 68 68 68 68 68 68 68 68 68 68 0
1 68 68 68 68 68 69 69 69 69 69 69 0
1 69 69 69 69 69 69 69 69 69 69 69 0
1 69 69 69 69 69 69 70 70 70 70 70 0
1 70 70 70 70 70 70 70 70 70 70 70 0
1 70 70 70 71 71 71 71 71 71 71 71 0
1 71 71 71 71 71 71 71 71 71 71 71 0
1 71 71 71 71 71 72 72 72 72 72 72 0
1 72 72 72 72 72 72 72 72 72 72 72 0
1 73 73 73 73 73 73 73 73 73 73 73 0
1 73 73 73 73 73 73 73 73 74 74 74 0
1 74 74 74 74 74 74 74 74 74 74 74 0
1 74 74 75 75 75 75 75 75 75 75 75 0
1 75 75 75 75 75 75 75 75 75 75 75 0
1 76 76 76 76 76 76 76 76 76 76 76 0
1 76 76 76 76 76 76 76 76 76 76 76 0
1 77 77 77 77 77 77 77 77 77 77 77 0
1 77 77 77 77 77 77 77 78 78 78 78 0
1 78 78 78 78 78 78 78 78 78 78 78 0
1 78 78 78 78 78 78 79 79 79 79 79 0
1 79 79 79 79 79 79 79 79 79 79 79 0
1 79 79 79 80 80 80 80 80 80 80 80 0
1 80 80 80 80 80 80 80 80 80 80 80 0
1 80 80 80 80 81 81 81 81 81 81 81 0
1 81 81 81 81 81 81 81 81 81 81 81 0
1 81 82 82 82 82 82 82 82 82 82 82 0
1 82 82 82 82 82 82 82 82 82 82 82 0
1 82 82 82 82 82 83 83 83 83 83 83 0
1 83 83 83 83 83 83 83 83 83 83 84 0
1 84 84 84 84 84 84 84 84 84 84 84 0
1 84 84 84 84 84 84 84 84 84 85 85 0
1 85 85 85 85 85 85 85 85 85 85 85 0
1 85 85 85 85 85 86 86 86 86 86 86 0
1 86 86 86 86 86 86 86 86 86 86 86 0
1 86 86 86 86 86 86 86 87 87 87 87 0
1 87 87 87 87 87 87 87 87 87 87 87 0
1 87 87 88 88 88 88 88 88 88 88 88 0
1 88 88 88 88 88 88 88 88 89 89 89 0
1 89 89 89 89 89 89 89 89 89 89 89 0
1 89 89 90 90 90 90 90 90 90 90 90 0
1 90 90 90 90 90 90 90 90 90 91 91 0
1 91 91 91 91 91 91 91 91 91 91 91 0
1 91 91 91 91 91 91 91 91 91 91 92 0
1 92 92 92 92 92 92 92 92 92 92 92 0
1 92 92 92 92 92 92 93 93 93 93 93 0
1 93 93 93 93 93 93 93 93 93 93 93 0
1 94 94 94 94 94 94 94 94 94 94 94 0
1 94 94 94 94 94 94 94 95 95 95 95 0
1 95 95 95 95 95 95 95 95 95 95 95 0
1 95 95 95 95 95 96 96 96 96 96 96 0
1 96 96 96 96 96 96 96 96 96 96 96 0
1 96 97 97 97 97 97 97 97 97 97 97 0
1 97 97 97 97 97 97 97 97 97 97 97 0
1 97 97 98 98 98 98 98 98 98 98 98 0
1 98 98 98 98 98 98 98 98 98 98 98 0
1 98 98 98 98 99 99 99 99 99 99 99 0
1 99 99 99 99 99 99 99 99 99 100 100 0
1 100 100 100 100 100 100 100 100 100 100 100 0
1 100 100 100 100 100 100 100 0
1  0
1 94 119 139 298 335 339 384 404 573 627 637 0
1 722 725 928 954 958 1057 1151 1174 1289 1300 1316 0
1 1383 1406 1464 1525 1526 1582 1602 1753 1843 1869 1913 0
1  0
1 44 51 96 252 323 411 444 521 611 652 732 0
1 807 838 876 895 943 1035 1048 1050 1062 1086 1161 0
1 1292 1315 1351 1431 1541 1629 1637 1650 1656 1670 1678 0
1 1762 1768 1854 1939 1945 1962 0
1  0
1 166 343 435 460 612 656 681 718 719 729 801 0
1 893 925 997 1060 1154 1189 1199 1244 1263 1285 1316 0
1 1422 1433 1525 1701 1791 1801 1836 1875 1901 1940 1986 0
1  0
1 131 182 234 351 354 401 461 552 581 596 606 0
1 645 756 851 927 1205 1221 1243 1337 1369 1416 1509 0
1 1702 1717 1732 1831 1833 1869 1980 0
1  0
1 33 75 94 105 128 163 195 242 283 324 326 0
1 446 460 606 615 635 736 764 775 782 784 789 0
1 1049 1063 1102 1126 1268 1317 1357 1407 1432 1455 1490 0
1 1553 1555 1585 1713 1764 1775 1812 1858 1911 1913 0
1  0
1 103 253 281 282 293 294 296 302 345 393 513 0
1 616 642 721 764 779 803 999 1026 1039 1049 1064 0
1 1102 1121 1159 1173 1195 1206 1298 1378 1406 1563 1615 0
1 1707 1752 1801 1804 1873 1876 1921 1962 1967 0
1  0
1 58 249 285 305 376 388 459 530 565 566 603 0
1 632 662 698 705 763 787 824 906 924 933 954 0
1 1046 1056 1105 1258 1299 1320 1340 1390 1507 1631 1687 0
1 1790 1864 0
1  0
1 11 45 96 135 157 266 315 416 464 484 520 0
